outputs/case_311.model.txt
actuarial_assigned = False
board_approved = False
reported_to_authority = False
external_reviewer_hired = False
actuarial_report_fairness = False
actuarial_report_falsehood = False
actuarial_report_concealment = False
actuarial_report_omission = True
actuarial_report_error = False
external_review_report_fairness = False
external_review_report_falsehood = False
external_review_report_concealment = False
external_review_report_omission = False
external_review_report_error = False
violation_171_1_148_2_1 = False
violation_171_1_148_1_or_2 = False
internal_handling_established = True
act_148_1_1_complied = True
act_144_actuarial_report_fair = False
act_144_external_review_approved = False
explanation_document_compliant = True
explanation_document_falsehood = False
act_148_3_internal_control_established_and_executed = True
explanation_document_provided = True
violation_171_1_148_3_2 = False
violation_171_1_148_3_1 = False
act_148_1_2_complied = True
internal_control_executed = True
act_144_external_review_report_fair = False
penalty = False
public_explanation_provided = True
internal_handling_executed = True
internal_control_established = True
act_148_3_internal_handling_established_and_executed = True
act_144_actuarial_assignment_approved = False
report_to_authority_on_time = True
report_or_explanation_falsehood = False
violation_171_1_148_2_2 = False